n_res = 4;
rcap = [20, 14, 63, 59];
rtype = [1, 1, 2, 2];
n_tasks = 10;
modes = [ {1, 2, 3}, {4, 5, 6}, {7, 8, 9}, {10, 11, 12}, {13, 14, 15}, {16, 17, 18}, {19, 20, 21}, {22, 23, 24}, {25, 26, 27}, {28, 29, 30} ];
succ = [ {5, 8}, {5, 8}, {4, 9, 10}, {8}, {6, 10}, {7}, {9}, {}, {}, {} ];
n_opt = 30;
dur = [4, 6, 7, 4, 9, 10, 3, 3, 6, 3, 5, 6, 5, 6, 9, 3, 3, 4, 1, 1, 2, 1, 6, 8, 5, 6, 9, 3, 5, 7];
rreq = [|  9,  6,  4,  7,  5,  5,  9,  9,  5,  7,  6,  5,  7,  6,  6,  5,  6,  2,  5,  5,  4,  8,  8,  8,  4,  3,  3,  3,  3,  3
        |  5,  4,  4,  6,  5,  5,  5,  6,  4,  5,  4,  4,  9,  8,  8,  5,  4,  2,  6,  4,  2,  4,  4,  3,  5,  3,  2,  7,  7,  7
        |  8,  6,  4,  0,  0,  6,  7,  0,  7,  0,  3,  0,  9,  0,  6,  0,  9,  9,  0,  9,  0,  0,  2,  0,  0,  4,  0,  6,  0,  3
        |  0,  0,  0,  9,  6,  0,  0,  3,  0,  7,  0,  7,  0,  9,  0, 10,  0,  0,  3,  0,  3,  4,  0,  3,  6,  0,  3,  0,  8,  0 |];
